c This is a random SAT instance with 10 variables and 20 clauses
p cnf 10 20
7 -10 -1 -3 -7 1 2 10 0
-8 1 0
-2 0
3 -2 -9 -6 8 -7 4 0
-7 4 9 5 -6 3 0
-4 -8 -1 -9 6 2 0
3 5 -3 4 10 -4 0
5 -1 -6 -7 -9 9 -2 0
-5 0
-6 -8 2 -1 3 4 5 -5 1 -4 0
10 -3 8 -1 0
6 1 2 -8 -7 -9 3 0
2 0
-10 -7 0
6 4 1 -5 -4 10 -8 0
-4 1 5 0
-5 9 2 -10 7 -4 5 1 -2 3 0
6 4 7 3 2 -1 -2 0
-8 9 -3 5 0
1 3 -6 -5 -2 -4 8 0